HFSDDW
20	4	2
0	92	1	24
0	34	1	82
0	83	1	53
0	72	1	57
0	80	1	38
0	38	1	56
0	95	1	98
0	72	1	31
0	82	1	48
0	72	1	31
0	32	1	68
0	41	1	96
0	74	1	50
0	5	1	8
0	24	1	93
0	19	1	99
0	21	1	57
0	78	1	43
0	76	1	73
0	14	1	40
LBCmax: 588
RELDUE
-1	512	5	6
-1	299	4	8
-1	589	2	4
-1	499	4	4
-1	490	2	3
-1	387	5	1
-1	516	4	3
-1	367	7	3
-1	436	8	8
-1	294	4	5
-1	554	8	8
-1	399	7	3
-1	298	2	8
-1	495	9	6
-1	307	5	5
-1	377	6	4
-1	587	6	8
-1	427	9	9
-1	322	7	9
-1	409	4	2
DDW
415	609
284	314
471	707
484	514
441	539
337	437
413	619
316	418
358	514
250	338
510	598
319	479
238	358
431	559
279	335
324	430
470	704
414	440
277	367
380	438
